5 5
0 72 4 54 2 95 1 34 3 71
2 36 4 18 1 38 0 59 3 9
1 73 4 72 0 51 2 35 3 82
3 5 4 14 1 92 2 30 0 4
0 39 2 84 4 64 1 25 3 28
-1
0 1 2 4 5
0 1 3 4 5
0 1 3 4 5
0 1 2 3 5
0 2 4 5
-2
114 144 359 466
37 124 218 180
93 221 249 492
5 29 116 207
123 276 260

431 8
20 0 12 8 19
10 7 17 23 3
5 21 13 2 18
15 14 24 9 4
16 6 11 1 22
